row=9;
column=9;

Board=[|6,0,0,3,0,8,0,0,0|0,0,0,4,0,7,0,0,0|0,5,0,0,0,0,0,0,0|3,4,5,0,0,0,0,7,2|8,0,0,0,0,0,0,0,0|7,6,0,0,0,0,3,8,5|4,3,0,9,0,0,0,0,0|9,0,1,7,0,0,0,4,0|5,2,0,0,0,0,0,9,0|];
OE=[|0,1,0,1,1,0,1,0,1|1,1,1,0,0,1,0,1,0|0,1,0,0,1,1,1,1,0|1,0,1,0,0,1,1,1,0|0,1,0,1,1,1,0,0,1|1,0,1,0,1,0,1,0,1|0,1,0,1,0,1,0,1,1|1,0,1,1,1,0,1,0,0|1,0,1,1,0,0,0,1,1|];
